
******************************************************************************
This program contains Ipopt, a library for large-scale nonlinear optimization.
 Ipopt is released as open source code under the Eclipse Public License (EPL).
         For more information visit http://projects.coin-or.org/Ipopt

This version of Ipopt was compiled from source code available at
    https://github.com/IDAES/Ipopt as part of the Institute for the Design of
    Advanced Energy Systems Process Systems Engineering Framework (IDAES PSE
    Framework) Copyright (c) 2018-2019. See https://github.com/IDAES/idaes-pse.

This version of Ipopt was compiled using HSL, a collection of Fortran codes
    for large-scale scientific computation.  All technical papers, sales and
    publicity material resulting from use of the HSL codes within IPOPT must
    contain the following acknowledgement:
        HSL, a collection of Fortran codes for large-scale scientific
        computation. See http://www.hsl.rl.ac.uk.
******************************************************************************

This is Ipopt version 3.13.2, running with linear solver ma27.

Number of nonzeros in equality constraint Jacobian...:      928
Number of nonzeros in inequality constraint Jacobian.:        0
Number of nonzeros in Lagrangian Hessian.............:      806

Total number of variables............................:      403
                     variables with only lower bounds:      124
                variables with lower and upper bounds:      217
                     variables with only upper bounds:        0
Total number of equality constraints.................:      402
Total number of inequality constraints...............:        0
        inequality constraints with only lower bounds:        0
   inequality constraints with lower and upper bounds:        0
        inequality constraints with only upper bounds:        0

iter    objective    inf_pr   inf_du lg(mu)  ||d||  lg(rg) alpha_du alpha_pr  ls
   0  0.0000000e+00 6.86e-01 2.84e-14  -1.0 0.00e+00    -  0.00e+00 0.00e+00   0
   1  1.4421948e-01 7.59e-01 1.33e+04  -1.0 1.49e+07    -  1.45e-02 2.19e-03f  6
   2  4.6878592e+00 7.50e-01 2.68e+05  -1.0 1.60e+07    -  1.43e-02 1.10e-02h  4
   3  1.0017629e+01 7.46e-01 3.27e+05  -1.0 1.93e+07    -  1.46e-02 5.11e-03h  5
   4  1.1589114e+01 7.46e-01 3.29e+05  -1.0 2.17e+07    -  1.48e-02 1.09e-03h  7
   5  1.3260405e+01 7.45e-01 3.31e+05  -1.0 2.34e+07    -  2.97e-02 1.03e-03h  7
   6  1.5025115e+01 7.44e-01 3.32e+05  -1.0 2.94e+07    -  2.48e-02 8.90e-04h  7
   7  4.5675048e+02 7.54e-01 7.86e+06  -1.0 3.10e+07    -  2.42e-02 5.44e-02h  1
   8  4.6909342e+02 7.56e-01 7.85e+06  -1.0 4.55e+07    -  3.97e-02 5.50e-04h  1
   9r 4.6909342e+02 7.56e-01 9.99e+02  -0.1 0.00e+00    -  0.00e+00 3.47e-07R  5
iter    objective    inf_pr   inf_du lg(mu)  ||d||  lg(rg) alpha_du alpha_pr  ls
  10r 4.6909410e+02 7.23e-01 9.98e+02  -0.1 2.82e+03    -  3.10e-03 9.81e-04f  1
  11r 4.6909410e+02 7.19e-01 9.93e+02  -0.1 1.95e+01   0.0 4.84e-03 4.55e-03f  1
  12r 4.6909938e+02 2.00e+00 9.86e+02  -0.1 2.65e+03    -  1.03e-02 7.96e-03f  1
  13r 4.6910172e+02 1.99e+00 9.81e+02  -0.1 2.23e+03    -  3.65e-02 4.29e-03f  1
  14r 4.6910722e+02 1.96e+00 9.62e+02  -0.1 5.08e+03    -  9.34e-03 1.95e-02f  1
  15r 4.6911249e+02 1.93e+00 9.56e+02  -0.1 2.08e+03    -  3.56e-03 1.11e-02f  1
  16r 4.6911351e+02 1.93e+00 9.47e+02  -0.1 3.41e+03    -  2.24e-02 4.37e-03f  1
  17r 4.6911846e+02 1.90e+00 9.46e+02  -0.1 2.05e+03    -  2.04e-03 1.32e-02f  1
  18r 4.6912042e+02 1.88e+00 9.27e+02  -0.1 3.37e+03    -  1.62e-02 8.07e-03f  1
  19r 4.6912207e+02 1.87e+00 9.41e+02  -0.1 2.77e+03    -  6.21e-04 7.94e-03f  1
iter    objective    inf_pr   inf_du lg(mu)  ||d||  lg(rg) alpha_du alpha_pr  ls
  20r 4.6912212e+02 1.87e+00 9.20e+02  -0.1 2.32e+03    -  3.04e-02 2.74e-04f  1
  21r 4.6912459e+02 1.85e+00 9.12e+02  -0.1 1.99e+03    -  2.30e-03 1.19e-02f  1
  22r 4.6912961e+02 1.80e+00 8.96e+02  -0.1 1.97e+03    -  1.73e-02 2.31e-02f  1
  23r 4.6913557e+02 1.75e+00 9.08e+02  -0.1 2.31e+03    -  1.94e-02 2.98e-02f  1
  24r 4.6913582e+02 1.75e+00 9.11e+02  -0.1 1.52e+03    -  2.44e-04 1.62e-03f  1
  25r 4.6913582e+02 1.75e+00 8.60e+02  -0.1 1.65e+03    -  4.98e-02 4.59e-04f  1
  26r 4.6913634e+02 1.68e+00 8.32e+02  -0.1 7.36e+02    -  1.73e-02 3.62e-02f  1
  27r 4.6913667e+02 1.62e+00 8.14e+02  -0.1 7.17e+02    -  2.19e-02 3.52e-02f  1
  28r 4.6913679e+02 1.60e+00 7.86e+02  -0.1 7.01e+02    -  9.76e-02 1.71e-02f  1
  29r 4.6913703e+02 1.53e+00 7.61e+02  -0.1 7.10e+02    -  5.30e-01 4.09e-02f  1
iter    objective    inf_pr   inf_du lg(mu)  ||d||  lg(rg) alpha_du alpha_pr  ls
  30r 4.6913864e+02 1.04e+00 5.42e+02  -0.1 7.92e+02    -  1.99e-01 3.21e-01f  1
  31r 4.6913864e+02 9.69e-01 5.06e+02  -0.1 4.72e+00  -0.5 4.82e-02 6.82e-02f  1
  32r 4.6913864e+02 8.82e-01 4.61e+02  -0.1 1.95e+00  -0.1 1.11e-01 9.00e-02f  1
  33r 4.6913864e+02 6.44e-01 1.21e+03  -0.1 4.50e+00  -0.5 1.16e-01 3.42e-01f  1
  34  4.6815168e+02 6.44e-01 3.49e+05  -1.0 1.31e+08    -  3.11e-02 2.74e-05f  1
  35  4.0890222e+02 4.69e+00 1.83e+06  -1.0 2.03e+08    -  1.98e-02 1.02e-03f  3
  36  3.5291588e+02 4.69e+00 3.08e+06  -1.0 2.08e+08    -  2.00e-02 1.18e-03f  3
  37  3.3828539e+02 4.69e+00 5.08e+06  -1.0 2.10e+08    -  2.07e-02 3.48e-04f  5
  38  3.3166545e+02 4.69e+00 1.44e+07  -1.0 2.11e+08    -  2.21e-02 1.64e-04f  6
  39  3.2851137e+02 4.69e+00 6.83e+07  -1.0 2.15e+08    -  2.49e-02 7.93e-05f  7
iter    objective    inf_pr   inf_du lg(mu)  ||d||  lg(rg) alpha_du alpha_pr  ls
  40  2.3469385e+02 2.86e+01 7.37e+08  -1.0 1.86e+08    -  2.76e-02 5.00e-03f  1
  41  2.1190080e+02 5.30e+01 7.28e+09  -1.0 2.20e+08    -  2.24e-02 6.10e-03f  1
  42  2.1075849e+02 5.29e+01 7.28e+09  -1.0 2.62e+08    -  1.63e-02 5.65e-04f  3
  43  2.1535037e+02 5.29e+01 7.28e+09  -1.0 4.10e+07    -  2.26e-02 3.75e-04h 11
  44r 2.1535037e+02 5.29e+01 1.00e+03   1.7 0.00e+00    -  0.00e+00 3.57e-07R 15
  45r 2.1534993e+02 7.24e+00 9.94e+02   1.7 1.26e+04    -  8.90e-03 3.80e-03f  1
  46r 2.1534993e+02 7.24e+00 9.99e+02   0.9 0.00e+00    -  0.00e+00 4.91e-08R  2
  47r 2.1534982e+02 4.48e+00 9.97e+02   0.9 6.00e+03    -  5.88e-03 1.20e-03f  1
  48  2.1521103e+02 4.48e+00 3.45e+04  -1.0 9.20e+08    -  7.74e-03 3.19e-05f  2
  49  2.2489111e+02 4.47e+00 3.54e+04  -1.0 4.03e+07    -  2.60e-02 7.65e-04h 10
iter    objective    inf_pr   inf_du lg(mu)  ||d||  lg(rg) alpha_du alpha_pr  ls
  50  2.2615286e+02 4.47e+00 3.63e+04  -1.0 4.13e+07    -  2.61e-02 9.48e-05h 13
  51r 2.2615286e+02 4.47e+00 1.00e+03   0.7 0.00e+00    -  0.00e+00 3.89e-07R 16
  52r 2.2615256e+02 4.46e+00 9.96e+02   0.7 3.99e+03    -  1.49e-02 2.67e-03f  1
  53r 2.2615181e+02 4.34e+00 9.90e+02   0.7 4.56e+03    -  1.31e-03 5.93e-03f  1
  54r 2.2615142e+02 4.19e+00 9.87e+02   0.7 6.28e+03    -  3.93e-03 3.74e-03f  1
  55r 2.2615122e+02 3.96e+00 9.83e+02   0.7 3.33e+03    -  5.87e-03 3.93e-03f  1
  56r 2.2615122e+02 3.96e+00 9.99e+02   0.6 0.00e+00    -  0.00e+00 3.45e-07R  3
  57r 2.2615075e+02 3.57e+00 9.84e+02   0.6 1.72e+03    -  1.88e-02 1.50e-02f  1
  58r 2.2615041e+02 2.62e+00 9.67e+02   0.6 2.32e+03    -  1.73e-02 1.71e-02f  1
  59  2.2633548e+02 2.62e+00 1.17e+01  -1.0 3.66e+07    -  5.14e-02 4.11e-05h  1
iter    objective    inf_pr   inf_du lg(mu)  ||d||  lg(rg) alpha_du alpha_pr  ls
  60r 2.2633548e+02 2.62e+00 9.99e+02   0.4 0.00e+00    -  0.00e+00 2.32e-07R  2
  61r 2.2633516e+02 7.80e-01 9.77e+02   0.4 2.17e+03    -  2.19e-02 2.18e-02f  1
  62r 2.2633516e+02 7.80e-01 9.99e+02  -0.1 0.00e+00    -  0.00e+00 3.13e-07R  4
  63r 2.2633509e+02 6.87e-01 9.97e+02  -0.1 4.73e+03    -  1.22e-02 2.70e-03f  1
  64  2.2630024e+02 6.87e-01 3.37e+03  -1.0 9.49e+08    -  7.46e-03 9.09e-06f  3
  65  2.2593604e+02 2.32e+00 4.49e+04  -1.0 1.32e+09    -  6.09e-03 6.06e-05f  4
  66  2.2609392e+02 2.32e+00 4.40e+04  -1.0 4.10e+07    -  2.61e-02 1.19e-05h 16
  67  8.9854201e+02 7.96e+00 1.10e+05  -1.0 4.10e+07    -  2.64e-02 2.64e-02s 21
  68r 8.9854201e+02 7.96e+00 1.00e+03   0.9 0.00e+00    -  0.00e+00 0.00e+00R  1
  69r 8.9854161e+02 7.16e-01 9.97e+02   0.9 3.40e+03    -  3.47e-03 2.32e-03f  1
iter    objective    inf_pr   inf_du lg(mu)  ||d||  lg(rg) alpha_du alpha_pr  ls
  70r 8.9854152e+02 6.97e-01 9.83e+02   0.9 3.20e+02    -  1.13e-01 2.80e-03f  1
  71r 8.9853899e+02 6.67e-01 8.84e+02   0.9 3.26e+02    -  2.68e-01 1.01e-01f  1
  72r 8.9853741e+02 6.66e-01 8.01e+02   0.9 3.05e+02    -  5.99e-01 9.32e-02f  1
  73r 8.9852668e+02 6.51e-01 2.22e+02   0.9 2.76e+02    -  8.90e-01 7.47e-01f  1
  74r 8.9852668e+02 6.51e-01 9.99e+02  -0.2 0.00e+00    -  0.00e+00 2.70e-07R  7
  75r 8.9851895e+02 2.75e+01 9.44e+02  -0.2 1.24e+03    -  4.27e-02 5.52e-02f  1
  76r 8.9851895e+02 2.72e+01 1.69e+03  -0.2 1.75e+01   4.0 1.85e-03 9.63e-03h  1
  77r 8.9851895e+02 2.58e+01 4.77e+03  -0.2 1.13e+01   3.5 1.23e-03 8.59e-02h  1
  78r 8.9851879e+02 2.49e+01 4.78e+03  -0.2 7.77e+04    -  1.99e-04 2.03e-05f  1
  79r 8.9851879e+02 2.44e+01 7.46e+03  -0.2 9.97e+00   3.9 1.13e-03 3.20e-02h  1
iter    objective    inf_pr   inf_du lg(mu)  ||d||  lg(rg) alpha_du alpha_pr  ls
  80r 8.9851879e+02 2.30e+01 9.54e+03  -0.2 9.74e+00   3.5 5.78e-02 9.72e-02h  1
  81r 8.9851879e+02 2.07e+01 9.39e+03  -0.2 8.73e+00   3.0 1.22e-02 1.60e-01h  1
  82r 8.9851863e+02 1.90e+01 9.39e+03  -0.2 2.28e+04    -  2.54e-04 7.47e-05f  1
  83r 8.9851855e+02 1.83e+01 9.39e+03  -0.2 2.08e+03    -  3.50e-02 3.66e-04f  1
  84r 8.9851552e+02 1.75e+01 9.03e+03  -0.2 1.14e+03    -  7.86e-01 3.82e-02f  1
  85r 8.9847188e+02 6.68e+00 3.44e+03  -0.2 1.10e+03    -  4.42e-02 6.19e-01f  1
  86r 8.9846586e+02 5.61e+00 2.89e+03  -0.2 4.06e+02    -  8.90e-01 1.60e-01f  1
  87r 8.9846579e+02 5.50e+00 2.83e+03  -0.2 3.44e+02    -  7.01e-01 1.93e-02h  1
  88r 8.9847201e+02 4.33e+00 2.23e+03  -0.2 5.12e+02    -  9.57e-02 2.14e-01f  1
  89r 8.9845151e+02 6.60e-01 9.53e+02  -0.2 2.62e+02    -  1.26e-01 1.00e+00h  1
iter    objective    inf_pr   inf_du lg(mu)  ||d||  lg(rg) alpha_du alpha_pr  ls
  90r 8.9845108e+02 6.61e-01 4.43e+02  -0.2 6.44e+01    -  3.64e-01 7.71e-01f  1
  91r 8.9844254e+02 6.61e-01 4.37e+02  -0.2 6.16e+02    -  1.46e-02 8.39e-02f  1
  92r 8.9839680e+02 6.63e-01 4.90e+02  -0.2 2.90e+02    -  5.68e-01 1.00e+00h  1
  93r 8.9839976e+02 6.65e-01 2.34e+02  -0.2 1.04e+02    -  9.90e-01 6.41e-01f  1
  94r 8.9840955e+02 6.64e-01 6.54e+02  -0.2 1.24e+02    -  2.85e-02 1.00e+00f  1
  95r 8.9840955e+02 6.64e-01 6.43e+02  -0.2 2.95e-01   2.5 2.76e-01 2.11e-02f  1
  96r 8.9840838e+02 6.64e-01 1.53e+03  -0.2 7.66e+01    -  1.00e+00 8.54e-02f  1
  97r 8.9840369e+02 6.64e-01 1.46e+02  -0.2 3.46e+01    -  1.00e+00 1.00e+00f  1
  98r 8.9839830e+02 6.64e-01 2.26e+00  -0.2 2.63e+01    -  1.00e+00 1.00e+00f  1
  99r 8.9839772e+02 6.65e-01 6.40e+01  -1.6 4.66e+01    -  7.26e-01 5.70e-01f  1
iter    objective    inf_pr   inf_du lg(mu)  ||d||  lg(rg) alpha_du alpha_pr  ls
 100r 8.9839772e+02 6.65e-01 1.37e+02  -1.6 1.73e-01   2.0 1.00e+00 8.15e-01f  1
 101r 8.9839622e+02 6.65e-01 1.48e+02  -1.6 4.01e+04    -  1.96e-03 7.14e-04f  1
 102r 8.9835794e+02 6.65e-01 9.56e+02  -1.6 4.24e+03    -  1.00e+00 6.51e-02f  1
 103r 8.9782105e+02 6.61e-01 7.56e+00  -1.6 3.97e+03    -  1.00e+00 1.00e+00f  1
 104r 8.9782135e+02 6.61e-01 3.89e-03  -1.6 2.51e+01    -  1.00e+00 1.00e+00h  1
 105r 8.9782083e+02 6.61e-01 1.92e+01  -3.6 3.14e+01    -  7.27e-01 9.70e-01f  1
 106r 8.9782083e+02 6.61e-01 2.21e+01  -3.6 3.54e-03   1.6 9.05e-01 1.00e+00f  1
 107r 8.9782083e+02 6.61e-01 2.52e-01  -3.6 2.06e-02   1.1 1.00e+00 1.00e+00f  1
 108r 8.9780429e+02 6.61e-01 1.50e+02  -3.6 2.30e+04    -  8.39e-02 2.67e-03f  1
 109r 8.9689988e+02 6.56e-01 1.36e+02  -3.6 2.29e+04    -  1.00e+00 1.46e-01f  1
iter    objective    inf_pr   inf_du lg(mu)  ||d||  lg(rg) alpha_du alpha_pr  ls
 110r 8.9688824e+02 6.56e-01 4.81e+02  -3.6 2.10e+04    -  6.49e-01 2.36e-03f  1
 111r 8.9671871e+02 6.55e-01 7.36e+02  -3.6 2.10e+04    -  1.00e+00 3.28e-02f  1
 112r 8.9391358e+02 6.39e-01 3.30e+02  -3.6 2.06e+04    -  1.00e+00 5.57e-01f  1
 113r 8.9391268e+02 6.39e-01 3.30e+02  -3.6 1.08e+04    -  5.10e-02 4.46e-04f  1
 114r 8.9390421e+02 6.39e-01 3.47e+02  -3.6 1.99e+04    -  1.48e-01 8.72e-03f  1
 115r 8.9379113e+02 6.39e-01 3.27e+02  -3.6 8.38e+03    -  2.21e-04 6.25e-02f  1
 116r 8.9379100e+02 6.39e-01 2.00e+03  -3.6 1.97e+04    -  6.49e-01 4.59e-04h  1
 117r 8.9348375e+02 6.31e-01 7.76e+02  -3.6 1.91e+04    -  5.50e-04 9.28e-01f  1
 118r 8.9348355e+02 6.31e-01 7.77e+02  -3.6 6.18e+03    -  9.39e-01 7.79e-04h  1
 119r 8.9328325e+02 6.31e-01 4.46e+01  -3.6 7.31e+03    -  7.76e-01 1.00e+00h  1
iter    objective    inf_pr   inf_du lg(mu)  ||d||  lg(rg) alpha_du alpha_pr  ls
 120r 8.9327982e+02 6.31e-01 1.69e-06  -3.6 2.94e+01    -  1.00e+00 1.00e+00h  1
 121r 8.9327980e+02 6.31e-01 9.16e-03  -8.0 1.14e+00    -  9.94e-01 9.95e-01f  1
 122r 8.9327980e+02 6.31e-01 2.12e+02  -8.0 1.86e-03   0.6 1.00e+00 6.32e-01f  1
 123r 8.9327980e+02 6.31e-01 9.89e+02  -8.0 4.39e-03   0.1 1.98e-01 6.70e-01f  1
 124r 8.9327980e+02 6.31e-01 9.03e+01  -8.0 1.40e-02  -0.3 1.00e+00 9.09e-01f  1
 125r 8.9327980e+02 6.31e-01 6.40e+00  -8.0 4.19e-02  -0.8 2.81e-01 1.00e+00f  1
 126r 8.9327979e+02 6.31e-01 6.32e-03  -8.0 1.26e-01  -1.3 1.00e+00 1.00e+00f  1
 127r 8.9327976e+02 6.31e-01 1.95e-01  -8.0 3.78e-01  -1.8 3.64e-01 1.00e+00f  1
 128r 8.9327969e+02 6.31e-01 6.32e-03  -8.0 1.13e+00  -2.3 1.00e+00 1.00e+00f  1
 129r 8.9327947e+02 6.31e-01 2.53e-02  -8.0 3.40e+00  -2.7 3.74e-01 1.00e+00f  1
iter    objective    inf_pr   inf_du lg(mu)  ||d||  lg(rg) alpha_du alpha_pr  ls
 130r 8.9327880e+02 6.31e-01 6.32e-03  -8.0 1.02e+01  -3.2 1.00e+00 1.00e+00f  1
 131r 8.9327680e+02 6.31e-01 2.27e-01  -8.0 3.06e+01  -3.7 3.75e-01 1.00e+00f  1
 132r 8.9327083e+02 6.31e-01 6.31e-03  -8.0 9.17e+01  -4.2 1.00e+00 1.00e+00f  1
 133r 8.9325304e+02 6.30e-01 2.01e+00  -8.0 2.74e+02  -4.6 3.77e-01 1.00e+00f  1
 134r 8.9320084e+02 6.29e-01 7.47e-02  -8.0 8.15e+02  -5.1 1.00e+00 1.00e+00f  1
 135r 8.9306915e+02 6.25e-01 1.34e+01  -8.0 2.38e+03  -5.6 3.89e-01 8.93e-01f  1
 136r 8.9306915e+02 6.25e-01 1.34e+01  -8.0 4.98e+03  -6.1 0.00e+00 6.45e-14R 17
 137r 8.9306915e+02 6.25e-01 1.02e+03  -8.0 1.05e+04  -6.5 4.66e-01 1.06e-12f 12
 138r 8.9267461e+02 6.07e-01 9.12e+02  -8.0 1.95e+04  -7.0 2.36e-01 2.10e-01f  1
 139r 8.9145710e+02 5.70e-01 4.58e+02  -8.0 2.86e+04  -7.5 3.19e-09 3.57e-01f  1
iter    objective    inf_pr   inf_du lg(mu)  ||d||  lg(rg) alpha_du alpha_pr  ls
 140  7.2147192e+02 5.69e-01 2.22e+07  -1.0 7.51e+08    -  5.18e-03 1.76e-03f  2
 141  6.5588740e+02 1.95e+00 1.18e+07  -1.0 9.63e+07    -  1.75e-03 6.94e-03f  2
 142  6.4650134e+02 1.94e+00 2.43e+07  -1.0 5.27e+07    -  8.69e-03 3.20e-03f  3
 143  6.2657135e+02 3.68e+01 3.22e+08  -1.0 4.15e+07    -  5.75e-02 1.23e-02f  1
 144  4.2435083e+01 2.37e+00 4.58e+09  -1.0 1.81e+06    -  2.45e-01 9.36e-01f  1
 145  6.2676480e+01 5.14e+00 8.92e+10  -1.0 5.63e+05    -  1.28e-01 9.90e-01h  1
 146  7.3492700e+00 3.66e-01 1.74e+09  -1.0 8.24e+05    -  9.90e-01 9.90e-01f  1
In iteration 146, 31 Slacks too small, adjusting variable bounds
 147  1.4214673e+00 5.25e-02 5.03e+13  -1.7 1.72e+05    -  7.47e-01 9.90e-01f  1
 148  7.4562142e-01 3.93e-03 7.38e+12  -1.7 5.48e+04    -  9.52e-01 1.00e+00f  1
 149  7.1772626e-01 1.33e-04 1.13e+11  -1.7 1.10e+04    -  9.85e-01 1.00e+00h  1
iter    objective    inf_pr   inf_du lg(mu)  ||d||  lg(rg) alpha_du alpha_pr  ls
 150  7.1777576e-01 8.67e-09 2.00e-07  -1.7 7.58e+01    -  1.00e+00 1.00e+00h  1
 151  7.1742762e-01 1.13e-06 8.78e+08  -9.0 1.07e+03    -  1.00e+00 1.00e+00f  1
 152  7.1742737e-01 1.60e-10 7.13e-08  -9.0 1.16e+00    -  1.00e+00 1.00e+00h  1

Number of Iterations....: 152

                                   (scaled)                 (unscaled)
Objective...............:   7.1742736670400231e-01    7.1742736670400231e-01
Dual infeasibility......:   7.1304384618997574e-08    7.1304384618997574e-08
Constraint violation....:   1.6022205784338439e-10    1.6022205784338439e-10
Complementarity.........:   9.5125862509840146e-10    9.5125862509840146e-10
Overall NLP error.......:   2.5646441371763909e-10    7.1304384618997574e-08


Number of objective function evaluations             = 412
Number of objective gradient evaluations             = 58
Number of equality constraint evaluations            = 413
Number of inequality constraint evaluations          = 0
Number of equality constraint Jacobian evaluations   = 163
Number of inequality constraint Jacobian evaluations = 0
Number of Lagrangian Hessian evaluations             = 152
Total CPU secs in IPOPT (w/o function evaluations)   =      0.182
Total CPU secs in NLP function evaluations           =      3.805

EXIT: Optimal Solution Found.
